tsp_instances/TSP50/instance91.tsp
NODE_COORD_SECTION
0 26 124
1 25 140
2 94 70
3 26 166
4 85 121
5 145 9
6 44 66
7 125 26
8 123 56
9 88 47
10 104 137
11 193 17
12 130 121
13 25 54
14 109 185
15 46 86
16 106 52
17 59 128
18 157 199
19 40 128
20 9 195
21 39 32
22 94 74
23 28 10
24 166 16
25 138 173
26 13 125
27 54 198
28 48 85
29 139 9
30 104 158
31 77 33
32 41 190
33 192 177
34 24 176
35 32 134
36 153 3
37 74 192
38 59 88
39 179 3
40 181 43
41 139 156
42 171 107
43 154 171
44 8 7
45 124 194
46 106 70
47 112 182
48 105 88
49 32 41
