tsp_instances/TSP50/instance91.opt.tour
TOUR_SECTION
1
27
2
4
35
21
33
28
38
15
48
46
19
34
44
26
42
31
11
13
43
41
12
40
25
37
6
30
8
9
17
47
49
23
3
10
32
22
24
45
50
14
7
16
29
39
5
18
20
36
-1